; DUP1 DUP4 PUSH 0x00 ADD PUSH cw_2 DUP3 => DUP1 DUP4 PUSH cw_2 DUP4
(set-option :produce-proofs true)
; 
(set-info :status unknown)
(declare-fun storage_t ((_ BitVec 256) (_ BitVec 256) (_ BitVec 256) (_ BitVec 256) Int (_ BitVec 256)) (_ BitVec 256))
(declare-fun w_2 () (_ BitVec 256))
(declare-fun storage_s ((_ BitVec 256) (_ BitVec 256) (_ BitVec 256) (_ BitVec 256) Int (_ BitVec 256)) (_ BitVec 256))
(declare-fun exc_halt_t (Int) Bool)
(declare-fun exc_halt_s (Int) Bool)
(declare-fun stack_t ((_ BitVec 256) (_ BitVec 256) (_ BitVec 256) (_ BitVec 256) Int (_ BitVec 6)) (_ BitVec 256))
(declare-fun stack_s ((_ BitVec 256) (_ BitVec 256) (_ BitVec 256) (_ BitVec 256) Int (_ BitVec 6)) (_ BitVec 256))
(declare-fun sc_t (Int) (_ BitVec 6))
(declare-fun sc_s (Int) (_ BitVec 6))
(declare-fun used_gas_t ((_ BitVec 256) (_ BitVec 256) (_ BitVec 256) (_ BitVec 256) Int) Int)
(declare-fun used_gas_s ((_ BitVec 256) (_ BitVec 256) (_ BitVec 256) (_ BitVec 256) Int) Int)
(assert
 (exists ((x_0 (_ BitVec 256)) (x_1 (_ BitVec 256)) (x_2 (_ BitVec 256)) )(let (($x9396 (forall ((w (_ BitVec 256)) )(let ((?x9841 (storage_t x_0 x_1 x_2 w_2 4 w)))
 (let ((?x2468 (storage_s x_0 x_1 x_2 w_2 6 w)))
 (= ?x2468 ?x9841))))
 ))
 (let (($x3723 (exc_halt_t 4)))
 (let (($x772 (exc_halt_s 6)))
 (let (($x3950 (= $x772 $x3723)))
 (let (($x9202 (forall ((n (_ BitVec 6)) )(let ((?x5334 (stack_t x_0 x_1 x_2 w_2 4 n)))
 (let ((?x2067 (stack_s x_0 x_1 x_2 w_2 6 n)))
 (let (($x10850 (= ?x2067 ?x5334)))
 (let ((?x3757 (sc_t 4)))
 (let (($x916 (bvsle ?x3757 n)))
 (or $x916 $x10850)))))))
 ))
 (let ((?x3757 (sc_t 4)))
 (let ((?x926 (sc_s 6)))
 (let (($x3687 (= ?x926 ?x3757)))
 (let ((?x8956 (used_gas_t x_0 x_1 x_2 w_2 0)))
 (let ((?x8863 (used_gas_s x_0 x_1 x_2 w_2 0)))
 (let (($x7806 (= ?x8863 ?x8956)))
 (let (($x9035 (forall ((w (_ BitVec 256)) )(let ((?x799 (storage_t x_0 x_1 x_2 w_2 0 w)))
 (let ((?x4943 (storage_s x_0 x_1 x_2 w_2 0 w)))
 (= ?x4943 ?x799))))
 ))
 (let (($x56 (exc_halt_t 0)))
 (let (($x57 (exc_halt_s 0)))
 (let (($x58 (= $x57 $x56)))
 (let (($x729 (forall ((n (_ BitVec 6)) )(let ((?x63 (sc_t 0)))
 (let (($x6321 (bvsle ?x63 n)))
 (let ((?x6747 (stack_t x_0 x_1 x_2 w_2 0 n)))
 (let ((?x7849 (stack_s x_0 x_1 x_2 w_2 0 n)))
 (let (($x1742 (= ?x7849 ?x6747)))
 (or $x1742 $x6321)))))))
 ))
 (let ((?x63 (sc_t 0)))
 (let ((?x72 (sc_s 0)))
 (let (($x73 (= ?x72 ?x63)))
 (let (($x2075 (exc_halt_t 3)))
 (let (($x1413 (not (= ((_ extract 6 6) (bvadd (_ bv1 7) (concat (_ bv0 1) (sc_t 3)))) (_ bv0 1)))))
 (let (($x1901 (forall ((w (_ BitVec 256)) )(let ((?x2816 (storage_t x_0 x_1 x_2 w_2 3 w)))
 (let ((?x9841 (storage_t x_0 x_1 x_2 w_2 4 w)))
 (= ?x9841 ?x2816))))
 ))
 (let (($x10298 (forall ((n (_ BitVec 6)) )(let ((?x7650 (stack_t x_0 x_1 x_2 w_2 3 n)))
 (let ((?x5334 (stack_t x_0 x_1 x_2 w_2 4 n)))
 (or (bvsle (bvadd (_ bv60 6) (sc_t 3)) n) (= ?x5334 ?x7650)))))
 ))
 (let (($x1594 (= ?x3757 (bvadd (_ bv1 6) (sc_t 3)))))
 (let (($x5475 (= (used_gas_t x_0 x_1 x_2 w_2 4) (+ 3 (used_gas_t x_0 x_1 x_2 w_2 3)))))
 (let (($x186 (= (stack_t x_0 x_1 x_2 w_2 4 (bvadd (_ bv63 6) (sc_t 3))) (stack_t x_0 x_1 x_2 w_2 3 (bvadd (_ bv63 6) (sc_t 3))))))
 (let (($x9539 (= (stack_t x_0 x_1 x_2 w_2 4 (bvadd (_ bv62 6) (sc_t 3))) (stack_t x_0 x_1 x_2 w_2 3 (bvadd (_ bv62 6) (sc_t 3))))))
 (let (($x1697 (= (stack_t x_0 x_1 x_2 w_2 4 (bvadd (_ bv61 6) (sc_t 3))) (stack_t x_0 x_1 x_2 w_2 3 (bvadd (_ bv61 6) (sc_t 3))))))
 (let ((?x2725 (sc_t 3)))
 (let ((?x696 (bvadd (_ bv60 6) ?x2725)))
 (let ((?x740 (stack_t x_0 x_1 x_2 w_2 3 ?x696)))
 (let (($x751 (not (= ((_ extract 6 6) (bvadd (_ bv1 7) (concat (_ bv0 1) (sc_t 2)))) (_ bv0 1)))))
 (let (($x5252 (exc_halt_t 2)))
 (let (($x10061 (= $x2075 (or $x5252 $x751))))
 (let (($x5814 (forall ((w (_ BitVec 256)) )(let ((?x1481 (storage_t x_0 x_1 x_2 w_2 2 w)))
 (let ((?x2816 (storage_t x_0 x_1 x_2 w_2 3 w)))
 (= ?x2816 ?x1481))))
 ))
 (let (($x6742 (forall ((n (_ BitVec 6)) )(let ((?x2906 (stack_t x_0 x_1 x_2 w_2 2 n)))
 (let ((?x7650 (stack_t x_0 x_1 x_2 w_2 3 n)))
 (let ((?x2714 (sc_t 2)))
 (let (($x1161 (bvsle ?x2714 n)))
 (or $x1161 (= ?x7650 ?x2906)))))))
 ))
 (let (($x3846 (= ?x2725 (bvadd (_ bv1 6) (sc_t 2)))))
 (let ((?x3712 (used_gas_t x_0 x_1 x_2 w_2 3)))
 (let (($x8124 (not (= ((_ extract 6 6) (bvadd (_ bv1 7) (concat (_ bv0 1) (sc_t 1)))) (_ bv0 1)))))
 (let (($x8096 (exc_halt_t 1)))
 (let (($x3727 (not (bvsle (_ bv0 6) (bvadd (_ bv60 6) (sc_t 1))))))
 (let (($x4244 (forall ((w (_ BitVec 256)) )(let ((?x5973 (storage_t x_0 x_1 x_2 w_2 1 w)))
 (let ((?x1481 (storage_t x_0 x_1 x_2 w_2 2 w)))
 (= ?x1481 ?x5973))))
 ))
 (let (($x7451 (forall ((n (_ BitVec 6)) )(let ((?x3466 (stack_t x_0 x_1 x_2 w_2 1 n)))
 (let ((?x2906 (stack_t x_0 x_1 x_2 w_2 2 n)))
 (let ((?x10950 (sc_t 1)))
 (let ((?x11060 (bvadd (_ bv60 6) ?x10950)))
 (let (($x4360 (bvsle ?x11060 n)))
 (or $x4360 (= ?x2906 ?x3466))))))))
 ))
 (let ((?x2714 (sc_t 2)))
 (let (($x6826 (= ?x2714 (bvadd (_ bv1 6) (sc_t 1)))))
 (let ((?x1456 (used_gas_t x_0 x_1 x_2 w_2 2)))
 (let ((?x10950 (sc_t 1)))
 (let ((?x2841 (bvadd (_ bv63 6) ?x10950)))
 (let ((?x1214 (stack_t x_0 x_1 x_2 w_2 1 ?x2841)))
 (let (($x10160 (= (stack_t x_0 x_1 x_2 w_2 2 (bvadd (_ bv62 6) ?x10950)) (stack_t x_0 x_1 x_2 w_2 1 (bvadd (_ bv62 6) ?x10950)))))
 (let (($x5578 (= (stack_t x_0 x_1 x_2 w_2 2 (bvadd (_ bv61 6) ?x10950)) (stack_t x_0 x_1 x_2 w_2 1 (bvadd (_ bv61 6) ?x10950)))))
 (let ((?x11060 (bvadd (_ bv60 6) ?x10950)))
 (let ((?x8547 (stack_t x_0 x_1 x_2 w_2 1 ?x11060)))
 (let (($x11677 (not (bvsle (_ bv0 6) (bvadd (_ bv63 6) ?x63)))))
 (let (($x6182 (not (= ((_ extract 6 6) (bvadd (_ bv1 7) (concat (_ bv0 1) ?x63))) (_ bv0 1)))))
 (let (($x1798 (= $x8096 (or $x56 $x6182 $x11677))))
 (let (($x10349 (forall ((w (_ BitVec 256)) )(let ((?x799 (storage_t x_0 x_1 x_2 w_2 0 w)))
 (let ((?x5973 (storage_t x_0 x_1 x_2 w_2 1 w)))
 (= ?x5973 ?x799))))
 ))
 (let (($x6641 (forall ((n (_ BitVec 6)) )(let ((?x6747 (stack_t x_0 x_1 x_2 w_2 0 n)))
 (let ((?x3466 (stack_t x_0 x_1 x_2 w_2 1 n)))
 (let ((?x63 (sc_t 0)))
 (let ((?x4768 (bvadd (_ bv63 6) ?x63)))
 (let (($x366 (bvsle ?x4768 n)))
 (or $x366 (= ?x3466 ?x6747))))))))
 ))
 (let (($x6864 (= ?x10950 (bvadd (_ bv1 6) ?x63))))
 (let ((?x4768 (bvadd (_ bv63 6) ?x63)))
 (let ((?x1225 (stack_t x_0 x_1 x_2 w_2 0 ?x4768)))
 (let (($x9579 (not (= ((_ extract 6 6) (bvadd (_ bv1 7) (concat (_ bv0 1) (sc_s 5)))) (_ bv0 1)))))
 (let (($x3979 (exc_halt_s 5)))
 (let (($x11309 (= $x772 (or (not (bvsle (_ bv0 6) (bvadd (_ bv61 6) (sc_s 5)))) $x3979 $x9579))))
 (let (($x6843 (forall ((w (_ BitVec 256)) )(let ((?x5935 (storage_s x_0 x_1 x_2 w_2 5 w)))
 (let ((?x2468 (storage_s x_0 x_1 x_2 w_2 6 w)))
 (= ?x2468 ?x5935))))
 ))
 (let (($x634 (forall ((n (_ BitVec 6)) )(let ((?x10328 (stack_s x_0 x_1 x_2 w_2 5 n)))
 (let ((?x2067 (stack_s x_0 x_1 x_2 w_2 6 n)))
 (let ((?x805 (sc_s 5)))
 (let ((?x8202 (bvadd (_ bv61 6) ?x805)))
 (let (($x7835 (bvsle ?x8202 n)))
 (or $x7835 (= ?x2067 ?x10328))))))))
 ))
 (let (($x9087 (= ?x926 (bvadd (_ bv1 6) (sc_s 5)))))
 (let (($x4655 (= (used_gas_s x_0 x_1 x_2 w_2 6) (+ 3 (used_gas_s x_0 x_1 x_2 w_2 5)))))
 (let (($x10567 (= (stack_s x_0 x_1 x_2 w_2 6 (bvadd (_ bv63 6) (sc_s 5))) (stack_s x_0 x_1 x_2 w_2 5 (bvadd (_ bv63 6) (sc_s 5))))))
 (let (($x6909 (= (stack_s x_0 x_1 x_2 w_2 6 (bvadd (_ bv62 6) (sc_s 5))) (stack_s x_0 x_1 x_2 w_2 5 (bvadd (_ bv62 6) (sc_s 5))))))
 (let ((?x805 (sc_s 5)))
 (let ((?x8202 (bvadd (_ bv61 6) ?x805)))
 (let ((?x10922 (stack_s x_0 x_1 x_2 w_2 5 ?x8202)))
 (let (($x7016 (not (= ((_ extract 6 6) (bvadd (_ bv1 7) (concat (_ bv0 1) (sc_s 4)))) (_ bv0 1)))))
 (let (($x7172 (exc_halt_s 4)))
 (let (($x6427 (= $x3979 (or $x7172 $x7016))))
 (let (($x11847 (forall ((w (_ BitVec 256)) )(let ((?x9118 (storage_s x_0 x_1 x_2 w_2 4 w)))
 (let ((?x5935 (storage_s x_0 x_1 x_2 w_2 5 w)))
 (= ?x5935 ?x9118))))
 ))
 (let (($x2282 (forall ((n (_ BitVec 6)) )(let ((?x4305 (sc_s 4)))
 (let (($x11475 (bvsle ?x4305 n)))
 (let ((?x6150 (stack_s x_0 x_1 x_2 w_2 4 n)))
 (let ((?x10328 (stack_s x_0 x_1 x_2 w_2 5 n)))
 (or (= ?x10328 ?x6150) $x11475))))))
 ))
 (let (($x5457 (= ?x805 (bvadd (_ bv1 6) (sc_s 4)))))
 (let ((?x4566 (used_gas_s x_0 x_1 x_2 w_2 5)))
 (let (($x6252 (= $x7172 (or (exc_halt_s 3) (not (bvsle (_ bv0 6) (bvadd (_ bv62 6) (sc_s 3))))))))
 (let (($x5722 (forall ((w (_ BitVec 256)) )(let ((?x5056 (storage_s x_0 x_1 x_2 w_2 3 w)))
 (let ((?x9118 (storage_s x_0 x_1 x_2 w_2 4 w)))
 (= ?x9118 ?x5056))))
 ))
 (let (($x9614 (forall ((n (_ BitVec 6)) )(let ((?x275 (sc_s 3)))
 (let ((?x9431 (bvadd (_ bv62 6) ?x275)))
 (let (($x11113 (bvsle ?x9431 n)))
 (let ((?x10701 (stack_s x_0 x_1 x_2 w_2 3 n)))
 (let ((?x6150 (stack_s x_0 x_1 x_2 w_2 4 n)))
 (or (= ?x6150 ?x10701) $x11113)))))))
 ))
 (let ((?x275 (sc_s 3)))
 (let ((?x10342 (bvadd (_ bv63 6) ?x275)))
 (let ((?x4305 (sc_s 4)))
 (let (($x5912 (= ?x4305 ?x10342)))
 (let ((?x4432 (used_gas_s x_0 x_1 x_2 w_2 4)))
 (let ((?x4852 (bvadd (stack_s x_0 x_1 x_2 w_2 3 ?x10342) (stack_s x_0 x_1 x_2 w_2 3 (bvadd (_ bv62 6) ?x275)))))
 (let (($x7070 (not (= ((_ extract 6 6) (bvadd (_ bv1 7) (concat (_ bv0 1) (sc_s 2)))) (_ bv0 1)))))
 (let (($x247 (exc_halt_s 2)))
 (let (($x292 (exc_halt_s 3)))
 (let (($x659 (forall ((w (_ BitVec 256)) )(let ((?x615 (storage_s x_0 x_1 x_2 w_2 2 w)))
 (let ((?x5056 (storage_s x_0 x_1 x_2 w_2 3 w)))
 (= ?x5056 ?x615))))
 ))
 (let (($x5243 (forall ((n (_ BitVec 6)) )(let ((?x7292 (stack_s x_0 x_1 x_2 w_2 2 n)))
 (let ((?x10701 (stack_s x_0 x_1 x_2 w_2 3 n)))
 (or (bvsle (sc_s 2) n) (= ?x10701 ?x7292)))))
 ))
 (let (($x8838 (= ?x275 (bvadd (_ bv1 6) (sc_s 2)))))
 (let ((?x9510 (used_gas_s x_0 x_1 x_2 w_2 3)))
 (let (($x4050 (not (= ((_ extract 6 6) (bvadd (_ bv1 7) (concat (_ bv0 1) (sc_s 1)))) (_ bv0 1)))))
 (let (($x189 (exc_halt_s 1)))
 (let (($x8801 (forall ((w (_ BitVec 256)) )(let ((?x713 (storage_s x_0 x_1 x_2 w_2 1 w)))
 (let ((?x615 (storage_s x_0 x_1 x_2 w_2 2 w)))
 (= ?x615 ?x713))))
 ))
 (let (($x9805 (forall ((n (_ BitVec 6)) )(let ((?x10634 (stack_s x_0 x_1 x_2 w_2 1 n)))
 (let ((?x7292 (stack_s x_0 x_1 x_2 w_2 2 n)))
 (or (= ?x7292 ?x10634) (bvsle (bvadd (_ bv60 6) (sc_s 1)) n)))))
 ))
 (let ((?x218 (sc_s 2)))
 (let (($x4375 (= ?x218 (bvadd (_ bv1 6) (sc_s 1)))))
 (let ((?x10462 (used_gas_s x_0 x_1 x_2 w_2 2)))
 (let ((?x154 (sc_s 1)))
 (let ((?x2527 (bvadd (_ bv63 6) ?x154)))
 (let ((?x8990 (stack_s x_0 x_1 x_2 w_2 1 ?x2527)))
 (let (($x6728 (= (stack_s x_0 x_1 x_2 w_2 2 (bvadd (_ bv62 6) ?x154)) (stack_s x_0 x_1 x_2 w_2 1 (bvadd (_ bv62 6) ?x154)))))
 (let (($x261 (= (stack_s x_0 x_1 x_2 w_2 2 (bvadd (_ bv61 6) ?x154)) (stack_s x_0 x_1 x_2 w_2 1 (bvadd (_ bv61 6) ?x154)))))
 (let ((?x2834 (bvadd (_ bv60 6) ?x154)))
 (let ((?x9791 (stack_s x_0 x_1 x_2 w_2 1 ?x2834)))
 (let (($x9123 (not (= ((_ extract 6 6) (bvadd (_ bv1 7) (concat (_ bv0 1) ?x72))) (_ bv0 1)))))
 (let (($x3261 (not (bvsle (_ bv0 6) (bvadd (_ bv63 6) ?x72)))))
 (let (($x3633 (= $x189 (or $x57 $x3261 $x9123))))
 (let (($x2562 (forall ((w (_ BitVec 256)) )(let ((?x4943 (storage_s x_0 x_1 x_2 w_2 0 w)))
 (let ((?x713 (storage_s x_0 x_1 x_2 w_2 1 w)))
 (= ?x713 ?x4943))))
 ))
 (let (($x7673 (forall ((n (_ BitVec 6)) )(let ((?x7849 (stack_s x_0 x_1 x_2 w_2 0 n)))
 (let ((?x10634 (stack_s x_0 x_1 x_2 w_2 1 n)))
 (let ((?x72 (sc_s 0)))
 (let ((?x10756 (bvadd (_ bv63 6) ?x72)))
 (let (($x1417 (bvsle ?x10756 n)))
 (or $x1417 (= ?x10634 ?x7849))))))))
 ))
 (let (($x481 (= ?x154 (bvadd (_ bv1 6) ?x72))))
 (let ((?x10756 (bvadd (_ bv63 6) ?x72)))
 (let ((?x5562 (stack_s x_0 x_1 x_2 w_2 0 ?x10756)))
 (let (($x8350 (forall ((w (_ BitVec 256)) )(let ((?x4943 (storage_s x_0 x_1 x_2 w_2 0 w)))
 (= ?x4943 (_ bv0 256))))
 ))
 (let (($x9132 (= ?x8863 0)))
 (let (($x1438 (not $x57)))
 (let (($x8884 (= (stack_s x_0 x_1 x_2 w_2 0 (_ bv2 6)) x_2)))
 (let (($x5644 (= (stack_s x_0 x_1 x_2 w_2 0 (_ bv1 6)) x_1)))
 (let (($x4363 (= (stack_s x_0 x_1 x_2 w_2 0 (_ bv0 6)) x_0)))
 (let (($x5315 (= ?x72 (_ bv3 6))))
 (and $x5315 $x4363 $x5644 $x8884 $x1438 $x9132 $x8350 (= ?x8990 ?x5562) (= (stack_s x_0 x_1 x_2 w_2 1 ?x10756) ?x5562) (= (used_gas_s x_0 x_1 x_2 w_2 1) (+ 3 ?x8863)) $x481 $x7673 $x2562 $x3633 (= (stack_s x_0 x_1 x_2 w_2 2 (bvadd (_ bv63 6) ?x218)) ?x9791) (= (stack_s x_0 x_1 x_2 w_2 2 ?x2834) ?x9791) $x261 $x6728 (= (stack_s x_0 x_1 x_2 w_2 2 ?x2527) ?x8990) (= ?x10462 (+ 3 (used_gas_s x_0 x_1 x_2 w_2 1))) $x4375 $x9805 $x8801 (= $x247 (or $x189 $x4050 (not (bvsle (_ bv0 6) ?x2834)))) (= (stack_s x_0 x_1 x_2 w_2 3 ?x218) (_ bv0 256)) (= ?x9510 (+ 3 ?x10462)) $x8838 $x5243 $x659 (= $x292 (or $x247 $x7070)) (= (stack_s x_0 x_1 x_2 w_2 4 (bvadd (_ bv63 6) ?x4305)) ?x4852) (= ?x4432 (+ 3 ?x9510)) $x5912 $x9614 $x5722 $x6252 (= (stack_s x_0 x_1 x_2 w_2 5 ?x4305) w_2) (= ?x4566 (+ 3 ?x4432)) $x5457 $x2282 $x11847 $x6427 (= (stack_s x_0 x_1 x_2 w_2 6 (bvadd (_ bv63 6) ?x926)) ?x10922) (= (stack_s x_0 x_1 x_2 w_2 6 ?x8202) ?x10922) $x6909 $x10567 $x4655 $x9087 $x634 $x6843 $x11309 (= ?x1214 ?x1225) (= (stack_t x_0 x_1 x_2 w_2 1 ?x4768) ?x1225) (= (used_gas_t x_0 x_1 x_2 w_2 1) (+ 3 ?x8956)) $x6864 $x6641 $x10349 $x1798 (= (stack_t x_0 x_1 x_2 w_2 2 (bvadd (_ bv63 6) ?x2714)) ?x8547) (= (stack_t x_0 x_1 x_2 w_2 2 ?x11060) ?x8547) $x5578 $x10160 (= (stack_t x_0 x_1 x_2 w_2 2 ?x2841) ?x1214) (= ?x1456 (+ 3 (used_gas_t x_0 x_1 x_2 w_2 1))) $x6826 $x7451 $x4244 (= $x5252 (or $x3727 $x8096 $x8124)) (= (stack_t x_0 x_1 x_2 w_2 3 ?x2714) w_2) (= ?x3712 (+ 3 ?x1456)) $x3846 $x6742 $x5814 $x10061 (= (stack_t x_0 x_1 x_2 w_2 4 (bvadd (_ bv63 6) ?x3757)) ?x740) (= (stack_t x_0 x_1 x_2 w_2 4 ?x696) ?x740) $x1697 $x9539 $x186 $x5475 $x1594 $x10298 $x1901 (= $x3723 (or $x1413 $x2075 (not (bvsle (_ bv0 6) ?x696)))) $x73 $x729 $x58 $x9035 $x7806 (not (and $x3687 $x9202 $x3950 $x9396)))))))))))))))))))))))))))))))))))))))))))))))))))))))))))))))))))))))))))))))))))))))))))))))))))))))))))))))))))))))))))))))))
 )
(check-sat)
(get-proof)
